Route #1: 1 1 5 17 33 27 31 1 
Route #2: 1 25 35 43 15 3 12 1 
Route #3: 1 28 20 2 36 14 39 24 26 13 6 1 
Route #4: 1 40 7 16 18 19 32 21 34 41 1 
Route #5: 1 29 37 4 9 11 10 1 
Route #6: 1 23 38 30 1 
Route #7: 1 8 22 42 1 

Cost 1041.94
Time 0.3080


 * Another infos *

 Iterations: 44 Time: 0.3080 sec - 0.0051 min - 0.0001 horas
0.0000 h 0.0051 min
Problem dimension: 44
